data;

set I := A1 A2 A3;

param n := 4;

param b :=
1	22
2	20
3	23
4	22
;

param d:	1	2	3	4 :=
	A1	5300	1200	7400	5300
	A2	4500	5400	6500	7200
	A3	4400	6700	12500	13200
;

param:  r	c	q	f	l	m :=
A1	124	75	500	150000	20	3
A2	109	53	450	150000	20	4
A3	115	65	550	100000	16	2
;

param K := 800;
